\ LP format - for model browsing. Use MPS format to capture full model detail.
Minimize
  8600 y2 + 8600 y4 + 7500 x2 + 21500 x4 + 7500 x2 + 21500 x4 + 7500 x2
   + 21500 x4 + 7500 x2 + 21500 x4 + 7500 x2 + 21500 x4 + 7500 x2
   + 21500 x4 + 7500 x2 + 21500 x4 + 7500 x2 + 21500 x4
Subject To
 c0: 14 y2 + 14 x2 + 14 x2 + 14 x2 + 14 x2 + 14 x2 + 14 x2 + 14 x2 + 14 x2
   >= 7
 c1: 14 y4 + 14 x4 + 14 x4 + 14 x4 + 14 x4 + 14 x4 + 14 x4 + 14 x4 + 14 x4
   >= -2
 c2: 1.55 x2 + 1.11 x4 <= 12
 c3: 1.55 x2 + 1.11 x4 <= 12
 c4: 1.55 x2 + 1.11 x4 <= 7.35
 c5: 1.55 x2 + 1.11 x4 <= 12
 c6: 1.55 x2 + 1.11 x4 <= 12
 c7: 1.55 x2 + 1.11 x4 <= 12
 c8: 1.55 x2 + 1.11 x4 <= 12
 c9: 1.55 x2 + 1.11 x4 <= 12
Bounds
Generals
 y2 y4 x2 x4 x2 x4 x2 x4 x2 x4 x2 x4 x2 x4 x2 x4 x2 x4
End
